(set-option :print-success false)
(set-logic QF_UF)
(declare-sort x114 0)
(declare-sort x34 0)
(declare-fun x110 () x34)
(declare-fun x118 () Bool)
(declare-fun x131 () Bool)
(declare-fun x55 () Bool)
(declare-fun x178 () Bool)
(declare-fun x170 () Bool)
(declare-fun x16 () Bool)
(declare-fun x162 () x114)
(declare-fun x133 () Bool)
(declare-fun x41 () x34)
(declare-fun x48 () Bool)
(declare-fun x100 () Bool)
(declare-fun x145 () Bool)
(declare-fun x156 () x114)
(declare-fun x51 () Bool)
(declare-fun x139 () Bool)
(declare-fun x99 () Bool)
(declare-fun x9 () x114)
(declare-fun x137 () Bool)
(declare-fun x56 () Bool)
(declare-fun x36 () Bool)
(declare-fun x92 () Bool)
(declare-fun x78 () Bool)
(declare-fun x119 () x34)
(declare-fun x177 () Bool)
(declare-fun x130 () Bool)
(declare-fun x169 () x34)
(declare-fun x52 () x114)
(declare-fun x147 () Bool)
(declare-fun x120 () Bool)
(declare-fun x191 () Bool)
(declare-fun x176 () Bool)
(declare-fun x5 () Bool)
(declare-fun x68 () x114)
(declare-fun x38 () Bool)
(declare-fun x62 () x114)
(declare-fun x8 () Bool)
(declare-fun x193 () Bool)
(declare-fun x10 () Bool)
(declare-fun x160 () Bool)
(declare-fun x86 () x34)
(declare-fun x117 () Bool)
(declare-fun x186 () Bool)
(declare-fun x166 () Bool)
(declare-fun x84 () Bool)
(declare-fun x106 () Bool)
(declare-fun x195 () Bool)
(declare-fun x4 () Bool)
(declare-fun x46 (x34 x34) Bool)
(declare-fun x28 () Bool)
(declare-fun x101 () Bool)
(declare-fun x17 () Bool)
(declare-fun x29 () Bool)
(declare-fun x152 () Bool)
(declare-fun x77 () x114)
(declare-fun x198 () Bool)
(declare-fun x93 () Bool)
(declare-fun x14 () Bool)
(declare-fun x66 () Bool)
(declare-fun x107 () Bool)
(declare-fun x116 () x114)
(declare-fun x172 () x34)
(declare-fun x63 () x114)
(declare-fun x140 () Bool)
(declare-fun x74 () Bool)
(declare-fun x104 () x114)
(declare-fun x175 () Bool)
(declare-fun x1 () Bool)
(declare-fun x90 () Bool)
(declare-fun x150 () Bool)
(declare-fun x64 () Bool)
(declare-fun x143 () Bool)
(declare-fun x57 () x34)
(declare-fun x111 () Bool)
(declare-fun x153 () Bool)
(declare-fun x135 () Bool)
(declare-fun x180 () Bool)
(declare-fun x109 () x114)
(declare-fun x89 () x114)
(declare-fun x50 () x34)
(declare-fun x42 () Bool)
(declare-fun x33 () Bool)
(declare-fun x146 () Bool)
(declare-fun x196 () x114)
(declare-fun x27 () Bool)
(declare-fun x58 () Bool)
(declare-fun x7 () x34)
(declare-fun x11 () Bool)
(declare-fun x123 () Bool)
(declare-fun x108 () Bool)
(declare-fun x183 () Bool)
(declare-fun x69 () Bool)
(declare-fun x98 () Bool)
(declare-fun x47 () Bool)
(declare-fun x144 () Bool)
(declare-fun x148 () x34)
(declare-fun x161 () Bool)
(declare-fun x121 () Bool)
(declare-fun x151 () x34)
(declare-fun x141 () Bool)
(declare-fun x54 () Bool)
(declare-fun x60 () Bool)
(declare-fun x97 () Bool)
(declare-fun x18 () x114)
(declare-fun x61 () Bool)
(declare-fun x185 () Bool)
(declare-fun x125 () Bool)
(declare-fun x83 () Bool)
(declare-fun x6 () x114)
(declare-fun x31 () x34)
(declare-fun x30 () Bool)
(declare-fun x197 () x114)
(declare-fun x39 () Bool)
(declare-fun x126 () Bool)
(declare-fun x19 () Bool)
(declare-fun x67 () Bool)
(declare-fun x37 () Bool)
(declare-fun x82 () x34)
(declare-fun x164 (x34 x34) x34)
(declare-fun x154 () Bool)
(declare-fun x25 () Bool)
(declare-fun x129 () Bool)
(declare-fun x21 () Bool)
(declare-fun x2 () Bool)
(declare-fun x91 () Bool)
(declare-fun x167 () Bool)
(declare-fun x13 () Bool)
(declare-fun x103 () Bool)
(declare-fun x159 () Bool)
(declare-fun x105 () x114)
(declare-fun x174 () Bool)
(declare-fun x43 () Bool)
(declare-fun x127 () Bool)
(declare-fun x95 () Bool)
(declare-fun x168 () Bool)
(declare-fun x81 () Bool)
(declare-fun x124 () Bool)
(declare-fun x128 () Bool)
(declare-fun x163 () Bool)
(declare-fun x102 () Bool)
(declare-fun x35 () x114)
(declare-fun x149 () Bool)
(declare-fun x171 () Bool)
(declare-fun x158 () Bool)
(declare-fun x71 () x34)
(declare-fun x184 () Bool)
(declare-fun x142 () Bool)
(declare-fun x76 () Bool)
(declare-fun x72 () Bool)
(declare-fun x179 () Bool)
(declare-fun x112 () Bool)
(declare-fun x59 () x34)
(declare-fun x188 () Bool)
(declare-fun x87 () Bool)
(declare-fun x115 () Bool)
(declare-fun x122 () Bool)
(declare-fun x136 () Bool)
(declare-fun x182 () Bool)
(declare-fun x138 () Bool)
(declare-fun x134 () Bool)
(declare-fun x65 () Bool)
(declare-fun x79 () Bool)
(declare-fun x45 () x34)
(declare-fun x113 () Bool)
(declare-fun x23 () Bool)
(declare-fun x190 () Bool)
(declare-fun x73 () Bool)
(declare-fun x26 () Bool)
(declare-fun x187 () Bool)
(declare-fun x24 () Bool)
(declare-fun x181 () x34)
(declare-fun x194 () Bool)
(declare-fun x3 () x114)
(declare-fun x96 () x114)
(declare-fun x192 () Bool)
(declare-fun x49 () Bool)
(declare-fun x22 () Bool)
(declare-fun x15 () Bool)
(declare-fun x94 () Bool)
(declare-fun x75 () x34)
(declare-fun x88 () Bool)
(declare-fun x155 () Bool)
(declare-fun x32 () Bool)
(declare-fun x70 () Bool)
(declare-fun x132 () Bool)
(declare-fun x40 () Bool)
(declare-fun x85 () Bool)
(declare-fun x80 () x34)
(declare-fun x12 () x34)
(declare-fun x20 () Bool)
(declare-fun x53 () Bool)
(declare-fun x165 () x34)
(declare-fun x189 () x114)
(declare-fun x44 () Bool)
(declare-fun x173 () Bool)
(declare-fun x157 () x34)
(assert (distinct x109 x96 x3 x196 x104))
(assert (= x117 (not x152)))
(assert (= x121 (= x89 x96)))
(assert (= x88 (not x64)))
(assert (= (and x38 x13 x126) x124))
(assert (= x158 (= x63 x96)))
(assert (= x75 (ite x106 x50 x181)))
(assert (= x139 (not x143)))
(assert (= x135 (not x142)))
(assert (= x32 (not x186)))
(assert (= x101 (not x4)))
(assert (= x159 (not x39)))
(assert (not (= x181 x50)))
(assert (= (not x123) x179))
(assert (= (not x167) x133))
(assert (= x11 (not x107)))
(assert (= (not x90) x55))
(assert (= (not x33) x72))
(assert (= (= x96 x62) x176))
(assert (= (not x85) x128))
(assert (= (not x54) x195))
(assert (= x65 (not x184)))
(assert (= x170 (not x40)))
(assert (= x81 (not x74)))
(assert (= (ite x47 x50 x181) x80))
(assert (= (not x102) x66))
(assert (= (not x97) x118))
(assert (= (not x113) x51))
(assert (= (not x132) x193))
(assert (= x187 (= x105 x96)))
(assert (= x137 (not x161)))
(assert x56)
(assert (= x19 (not x166)))
(assert (= x111 (= x96 x77)))
(assert (= x124 (not x155)))
(assert (= (x164 x172 x31) x82))
(assert (= x53 (= x197 x96)))
(assert (= x43 (not x87)))
(assert (= x127 (not x154)))
(assert (= x56 (and x97 x113 x25 x132 x131 x64 x122 x184 x4 x147 x143 x53 x141 x58 x107 x90 x23 x121 x161 x130 x126 x174 x140 x54 x14 x37 x85 x95 x103 x99 x166 x29 x176 x60 x154 x186 x33 x152 x49 x167 x92 x38 x91 x111 x144 x183 x17 x123 x16 x146 x2 x15 x149 x69 x138 x194 x40 x73 x1 x102 x39 x87 x48 x187 x79 x171 x191 x158 x70 x188 x94 x145 x76 x30 x155 x93 x74)))
(assert (= x160 (not x194)))
(assert (= x13 (not (= x172 x181))))
(assert (= x22 (not x17)))
(assert (= x47 (not x38)))
(assert (= x120 (not x73)))
(assert (= (= x96 x52) x130))
(assert (= x135 (x46 x50 x148)))
(assert (= (not x93) x83))
(assert (= x198 (not x91)))
(assert (= x138 (= x96 x116)))
(assert (= (not x147) x190))
(assert (= x175 (not x2)))
(assert (= (not x29) x10))
(assert (= (ite x159 x50 x181) x31))
(assert (= x92 (= x96 x189)))
(assert (= (not x30) x192))
(assert (= x144 (= x9 x96)))
(assert (= (not x27) x106))
(assert (= (not x16) x150))
(assert (= (not x70) x129))
(assert (= (not x146) x136))
(assert (= x112 (not x69)))
(assert (= x108 (not x174)))
(assert (= x168 (not x1)))
(assert (= (x164 x80 x12) x172))
(assert (= (not x76) x125))
(assert (= (and x153 x27 x98) x118))
(assert (= x42 (and x142 x113)))
(assert (= x98 (not (= x119 x181))))
(assert (= (not x48) x5))
(assert (= x28 (not x49)))
(assert (= x57 (ite x84 x50 x181)))
(assert (= (not x58) x8))
(assert (= x182 (not x14)))
(assert (= x42 (not x44)))
(assert (= (= x96 x18) x141))
(assert (= (ite x185 x50 x181) x12))
(assert (= (not x171) x21))
(assert (= (not x103) x20))
(assert (= (x164 x75 x57) x119))
(assert (= (= x6 x96) x99))
(assert (= x180 (not x183)))
(assert (= (not x122) x173))
(assert (= (not x79) x24))
(assert (= x115 (not x25)))
(assert (= (= x96 x68) x15))
(assert (= (= x35 x96) x60))
(assert (= (= x96 x156) x95))
(assert (= (not x126) x185))
(assert (= (not x140) x134))
(assert (= x23 (= x150 x44)))
(assert (= (not x37) x78))
(assert (= (not x131) x61))
(assert (= x7 (ite x21 x50 x181)))
(assert (= (not x153) x84))
(assert (= x26 (not x149)))
(assert (= x100 (not x191)))
(assert (= (= x162 x96) x145))
(assert (= (not x94) x67))
(assert (= (x164 x82 x7) x148))
(assert (= (not x188) x178))
(check-sat)
(exit)
